p cnf 35 115
-3 -1 0
-3 -2 0
1 2 3 0
-6 -4 0
-6 -5 0
4 5 6 0
-8 -6 0
-8 7 0
6 -7 8 0
9 5 -10 0
-9 -5 -10 0
9 -5 10 0
-9 5 10 0
-8 10 -11 0
8 -10 -11 0
-8 -10 11 0
8 10 11 0
12 3 0
12 -11 0
-3 11 -12 0
-1 13 -14 0
1 -13 -14 0
-1 -13 14 0
1 13 14 0
-12 -14 -15 0
12 14 -15 0
-12 14 15 0
12 -14 15 0
-6 8 -16 0
6 -8 -16 0
-6 -8 16 0
6 8 16 0
16 -17 -18 0
-16 17 -18 0
16 17 18 0
-16 -17 18 0
-19 10 0
-19 -7 0
-10 7 19 0
20 -18 0
20 -19 0
18 19 -20 0
-7 10 -21 0
7 -10 -21 0
-7 -10 21 0
7 10 21 0
20 -21 -22 0
-20 21 -22 0
20 21 22 0
-20 -21 22 0
-15 -22 -23 0
15 22 -23 0
-15 22 23 0
15 -22 23 0
24 17 0
24 -5 0
-17 5 -24 0
4 -24 -25 0
-4 24 -25 0
4 24 25 0
-4 -24 25 0
9 -27 -28 0
-9 27 -28 0
9 27 28 0
-9 -27 28 0
28 -29 0
-28 -29 0
30 -26 0
30 29 0
26 -29 -30 0
28 -7 -31 0
-28 7 -31 0
28 7 31 0
-28 -7 31 0
31 -6 -32 0
-31 6 -32 0
31 6 32 0
-31 -6 32 0
-30 32 -33 0
30 -32 -33 0
-30 -32 33 0
30 32 33 0
-34 25 0
-34 33 0
-25 -33 34 0
35 -23 0
35 34 0
23 -34 -35 0
-32 -14 0
-27 -33 22 5 -8 0
-30 -26 0
25 -13 0
-11 -5 -26 -28 0
20 32 27 24 0
-32 2 35 12 13 -28 0
-11 7 4 -21 0
32 -25 14 0
25 16 -23 -17 -28 0
26 7 17 -21 -20 0
-23 11 26 13 -22 -12 0
17 -11 10 0
22 17 16 0
-21 -34 16 -18 0
13 5 -20 -6 0
-5 -10 0
-13 31 -32 18 0
19 17 -14 25 5 0
32 -7 -33 -4 0
-4 31 -12 0
16 -22 -3 13 -33 24 0
-11 19 -1 -31 0
6 4 1 13 28 0
17 24 0
31 -28 7 -33 0
35 0
